NAME : optical-integer.-18476628.tour
COMMENT : Length = -18476628
COMMENT : Found by LKH [Keld Helsgaun] Wed May 19 13:19:11 2021
TYPE : TOUR
DIMENSION : 174
TOUR_SECTION
1
55
6
30
77
4
147
142
143
10
18
107
108
104
105
109
101
106
110
118
117
120
102
115
100
111
103
114
113
132
133
134
130
67
93
58
12
154
14
84
34
21
95
11
92
23
73
90
24
89
40
19
22
91
9
83
41
69
145
149
56
60
20
32
61
74
112
75
42
29
146
36
8
78
17
57
81
85
15
150
35
64
62
13
33
27
7
79
38
59
71
63
26
156
43
46
44
25
47
68
70
72
28
98
136
94
155
158
174
141
87
52
50
152
151
153
53
65
157
49
16
45
80
96
37
5
82
66
31
76
3
88
51
54
86
2
39
128
122
126
124
123
125
99
121
127
159
165
119
135
137
173
139
131
138
169
140
97
116
48
144
148
166
161
162
163
160
164
129
167
168
172
171
170
-1
EOF
